(set-logic QF_S)
(declare-fun var0 () String)
(assert (str.in.re var0 (re.++ (re.union (re.union (str.to.re "00") (str.to.re "11")) (re.+ (str.to.re "22"))) (re.++ (re.* (re.union (str.to.re "333") (str.to.re "444"))) (re.++ (re.+ (re.union (str.to.re "5") (str.to.re "6"))) (re.++ (re.+ (re.+ (str.to.re "777"))) (re.++ (re.* (re.union (str.to.re "88") (str.to.re "999"))) (re.++ (re.+ (re.+ (str.to.re "aa"))) (re.++ (re.+ (re.union (str.to.re "b") (str.to.re "ccc"))) (re.++ (re.union (re.* (str.to.re "d")) (re.+ (str.to.re "e"))) (re.++ (re.union (re.+ (str.to.re "fff")) (re.union (str.to.re "ggg") (str.to.re "hh"))) (re.++ (re.union (re.+ (str.to.re "i")) (re.+ (str.to.re "jj"))) (re.++ (re.* (re.* (str.to.re "kkk"))) (re.++ (re.* (re.union (str.to.re "l") (str.to.re "mmm"))) (re.++ (re.* (re.* (str.to.re "nnn"))) (re.++ (re.+ (re.union (str.to.re "ooo") (str.to.re "pp"))) (re.++ (re.* (re.* (str.to.re "q"))) (re.++ (re.+ (re.* (str.to.re "rrr"))) (re.++ (re.* (re.* (str.to.re "ss"))) (re.++ (re.union (re.union (str.to.re "t") (str.to.re "uuu")) (re.+ (str.to.re "vvv"))) (re.++ (re.* (re.union (str.to.re "ww") (str.to.re "x"))) (re.++ (re.* (re.* (str.to.re "y"))) (re.++ (re.+ (re.* (str.to.re "zzz"))) (re.++ (re.* (re.+ (str.to.re "AAA"))) (re.++ (re.+ (re.* (str.to.re "B"))) (re.++ (re.* (re.* (str.to.re "CC"))) (re.++ (re.+ (re.union (str.to.re "DD") (str.to.re "EEE"))) (re.++ (re.union (re.* (str.to.re "FF")) (re.+ (str.to.re "GGG"))) (re.++ (re.union (re.+ (str.to.re "HH")) (re.union (str.to.re "I") (str.to.re "J"))) (re.++ (re.* (re.+ (str.to.re "KKK"))) (re.++ (re.+ (re.+ (str.to.re "LL"))) (re.++ (re.* (re.* (str.to.re "MMM"))) (re.++ (re.+ (re.union (str.to.re "NN") (str.to.re "O"))) (re.++ (re.union (re.* (str.to.re "PPP")) (re.union (str.to.re "Q") (str.to.re "R"))) (re.++ (re.+ (re.union (str.to.re "SSS") (str.to.re "TT"))) (re.++ (re.+ (re.union (str.to.re "U") (str.to.re "VV"))) (re.++ (re.* (re.* (str.to.re "WWW"))) (re.++ (re.union (re.union (str.to.re "XXX") (str.to.re "Y")) (re.+ (str.to.re "ZZZ"))) (re.++ (re.+ (re.+ (str.to.re "!!"))) (re.++ (re.union (re.* (str.to.re """""""")) (re.* (str.to.re "###"))) (re.++ (re.union (re.+ (str.to.re "$")) (re.union (str.to.re "%%") (str.to.re "&&"))) (re.++ (re.union (re.* (str.to.re "'")) (re.union (str.to.re "(((") (str.to.re ")"))) (re.++ (re.union (re.+ (str.to.re "**")) (re.* (str.to.re "+"))) (re.++ (re.* (re.* (str.to.re ",,"))) (re.++ (re.+ (re.+ (str.to.re "--"))) (re.++ (re.union (re.* (str.to.re ".")) (re.union (str.to.re "//") (str.to.re ":"))) (re.++ (re.* (re.* (str.to.re ";;;"))) (re.++ (re.+ (re.* (str.to.re "<"))) (re.++ (re.* (re.union (str.to.re "===") (str.to.re ">>"))) (re.++ (re.* (re.+ (str.to.re "??"))) (re.++ (re.+ (re.* (str.to.re "@@"))) (re.++ (re.union (re.union (str.to.re "[[[") (str.to.re "\\\\\\")) (re.union (str.to.re "]]]") (str.to.re "^^^"))) (re.++ (re.* (re.* (str.to.re "__"))) (re.++ (re.+ (re.union (str.to.re "``") (str.to.re "{{"))) (re.++ (re.+ (re.+ (str.to.re "||"))) (re.++ (re.union (re.+ (str.to.re "}}}")) (re.+ (str.to.re "~"))) (re.union (re.+ (str.to.re "000")) (re.union (str.to.re "11") (str.to.re "22")))))))))))))))))))))))))))))))))))))))))))))))))))))))))))
(check-sat)